144
0 25 18 40 95 108 143 132 107 62 
63 29 28 55 102 53 16 131 134 32 
133 118 106 49 30 124 104 50 122 78 
34 99 125 138 128 93 71 42 85 12 
121 54 26 35 105 88 114 41 73 33 
97 89 1 65 15 115 87 119 7 4 
91 92 76 6 43 113 130 56 39 5 
72 120 21 135 129 47 77 22 31 126 
140 13 141 8 136 79 45 38 10 20 
37 127 90 36 44 2 86 109 27 66 
103 67 57 14 70 60 117 80 110 52 
58 75 101 64 137 11 94 61 84 112 
111 19 142 123 3 98 96 81 17 116 
82 59 9 51 23 74 69 48 68 46 
139 100 83 24 
